NAME : in_house_9_12
TYPE : TSP
DIMENSION : 9
EDGE_WEIGHT_TYPE : EXPLICIT
EDGE_WEIGHT_FORMAT : UPPER_ROW
COMMENT : INVERSION_SHIFT=9
EDGE_WEIGHT_SECTION
59
44
4
76
49
49
68
39
8
41
80
40
47
18
55
72
15
3
13
44
46
69
72
77
67
53
67
52
18
12
15
4
49
76
69
41
